FUEL/fuel_planner/utils/lkh_tsp_solver/resource/single.tsp
NAME : single
TYPE : ATSP
DIMENSION : 8
EDGE_WEIGHT_TYPE : EXPLICIT
EDGE_WEIGHT_FORMAT : FULL_MATRIX
EDGE_WEIGHT_SECTION
0 552 721 571 811 120 169 170 
0 0 267 145 205 168 194 263 
0 267 0 122 213 341 350 422 
0 145 122 0 264 228 242 311 
0 205 213 264 0 398 436 500 
0 168 341 228 398 0 39 98 
0 194 350 242 436 39 0 70 
0 263 422 311 500 98 70 0 
EOF