FUEL/fuel_planner/utils/lkh_tsp_solver/resource/single.txt
NAME : single.2812.tour
COMMENT : Length = 2812
COMMENT : Found by LKH [Keld Helsgaun] Wed Aug 24 18:59:39 2022
TYPE : TOUR
DIMENSION : 12
TOUR_SECTION
1
11
10
8
12
9
7
6
4
3
5
2
-1
EOF
